c SAT problem
p wcnf 598 2356
1 60 75 0
1 -60 3150 0
1 60 -3165 0
1 -60 61 0
1 -75 76 0
1 75 3150 0
1 -75 -3165 0
1 -90 105 0
1 90 -3165 0
1 105 -3105 0
1 105 106 0
1 -105 3165 0
1 -3120 -105 0
1 3120 3121 0
1 3120 181 0
1 3120 -120 0
1 3120 -60 0
1 -3135 120 0
1 -3135 90 0
1 3150 -196 0
1 3150 105 0
1 3150 75 0
1 -3150 151 0
1 3150 3165 0
1 -3165 196 0
1 3165 -136 0
1 -3165 -121 0
1 -3165 -90 0
1 120 3090 0
1 -120 121 0
1 -135 -3075 0
1 -135 -3090 0
1 150 -3015 0
1 -150 -151 0
1 -150 -3000 0
1 -150 -3135 0
1 -165 3105 0
1 -3060 225 0
1 -3060 -165 0
1 3060 135 0
1 3060 240 0
1 3060 -180 0
1 3060 -3061 0
1 3060 120 0
1 -3060 255 0
1 -3075 -195 0
1 3075 3076 0
1 3075 -105 0
1 -3075 -180 0
1 -3090 -196 0
1 -3090 165 0
1 3090 211 0
1 -3090 181 0
1 -3090 -120 0
1 3090 255 0
1 3105 -3106 0
1 -3105 135 0
1 -180 -195 0
1 180 181 0
1 195 196 0
1 195 -180 0
1 -210 -3015 0
1 210 -3000 0
1 -225 3015 0
1 225 -210 0
1 -3000 -225 0
1 3000 210 0
1 -3000 -180 0
1 -3000 -315 0
1 -3030 225 0
1 -3030 -165 0
1 3030 150 0
1 -3045 210 0
1 -3045 180 0
1 -3045 150 0
1 3045 315 0
1 61 3330 0
1 -61 3300 0
1 -61 -60 0
1 -61 62 0
1 -76 -3330 0
1 -76 -77 0
1 -76 3345 0
1 -76 3315 0
1 91 3300 0
1 106 3300 0
1 -106 -3270 0
1 106 3240 0
1 -106 -105 0
1 106 -107 0
1 106 3285 0
1 3300 -76 0
1 -3300 151 0
1 3300 -91 0
1 -3300 -61 0
1 -3315 -3300 0
1 3315 -121 0
1 3315 -61 0
1 -3330 3331 0
1 -3330 -167 0
1 3330 76 0
1 -3330 -3345 0
1 -3345 106 0
1 3345 122 0
1 -121 -136 0
1 121 -3240 0
1 121 3315 0
1 -121 120 0
1 -136 3315 0
1 -136 3285 0
1 -136 -3255 0
1 151 -166 0
1 151 3210 0
1 -151 -3150 0
1 -151 -150 0
1 151 -3255 0
1 151 152 0
1 -166 -3210 0
1 -166 3150 0
1 -166 3315 0
1 3240 226 0
1 3240 -196 0
1 -3240 136 0
1 -3240 -3241 0
1 -3240 211 0
1 -3240 -151 0
1 -3255 -166 0
1 -3255 -136 0
1 3255 -211 0
1 3255 -121 0
1 -3270 197 0
1 -3270 -166 0
1 -3270 -136 0
1 3270 91 0
1 -3285 166 0
1 3285 182 0
1 -3285 -151 0
1 -3285 -91 0
1 181 -3150 0
1 -181 3120 0
1 181 -3255 0
1 196 3240 0
1 -196 -3090 0
1 -196 181 0
1 196 -3255 0
1 -196 3165 0
1 -196 -3135 0
1 -211 -3136 0
1 -211 3105 0
1 -211 226 0
1 211 3151 0
1 211 -3090 0
1 -211 210 0
1 -211 3255 0
1 -211 3225 0
1 226 -3240 0
1 226 -3151 0
1 226 3121 0
1 226 3195 0
1 226 -3166 0
1 -3180 301 0
1 3180 181 0
1 3180 -3195 0
1 -3180 -255 0
1 -3195 196 0
1 3195 166 0
1 3195 301 0
1 -3195 -240 0
1 3195 -3196 0
1 3195 211 0
1 -3195 181 0
1 -3195 -316 0
1 3195 -285 0
1 3210 3211 0
1 3210 -211 0
1 3210 -151 0
1 3210 -316 0
1 3225 271 0
1 3225 211 0
1 3225 286 0
1 240 3180 0
1 -240 -3151 0
1 -240 -3090 0
1 240 -3060 0
1 240 -3030 0
1 -255 -3121 0
1 -255 3030 0
1 -255 3195 0
1 -255 -3166 0
1 270 -3076 0
1 -270 271 0
1 270 -3061 0
1 270 3030 0
1 -270 -285 0
1 -270 -3166 0
1 -285 -3091 0
1 -285 -3166 0
1 3121 300 0
1 -3121 -376 0
1 -3121 345 0
1 -3136 240 0
1 -3136 -211 0
1 -3136 3135 0
1 -3136 -285 0
1 -3151 270 0
1 3151 3150 0
1 -3151 3152 0
1 3151 -211 0
1 3151 -376 0
1 -3151 -285 0
1 3166 301 0
1 -3166 -211 0
1 -3166 3165 0
1 3166 -376 0
1 3166 -3167 0
1 -300 3076 0
1 300 301 0
1 300 3061 0
1 300 -3030 0
1 -300 3000 0
1 -300 315 0
1 315 -300 0
1 315 3091 0
1 -315 -3061 0
1 -315 -316 0
1 330 -3106 0
1 -330 -345 0
1 330 -3016 0
1 330 -3061 0
1 330 -3031 0
1 -345 3106 0
1 -345 3076 0
1 -345 -330 0
1 -345 -3121 0
1 -345 -3031 0
1 345 3001 0
1 345 -346 0
1 3061 -420 0
1 -3061 -330 0
1 -3061 270 0
1 3061 405 0
1 -3061 285 0
1 3076 330 0
1 -3076 -270 0
1 -3076 345 0
1 -3076 -285 0
1 -3091 3106 0
1 -3091 -330 0
1 -3091 -270 0
1 -3091 -435 0
1 3091 3092 0
1 -3106 -3107 0
1 3106 -420 0
1 -3106 -361 0
1 -3106 300 0
1 -3106 -3091 0
1 3106 -406 0
1 -3106 315 0
1 360 3031 0
1 360 375 0
1 -375 -3046 0
1 375 -360 0
1 -375 3031 0
1 375 3001 0
1 390 3031 0
1 -405 3046 0
1 -405 3016 0
1 405 -3061 0
1 3001 480 0
1 3001 -360 0
1 -3001 345 0
1 3001 3002 0
1 3016 330 0
1 3016 -375 0
1 3016 -345 0
1 3031 3030 0
1 3046 480 0
1 3046 -390 0
1 3046 495 0
1 -3046 -435 0
1 3046 -345 0
1 -62 3495 0
1 -62 -3480 0
1 -77 -3495 0
1 92 3495 0
1 92 107 0
1 -92 3510 0
1 92 -3480 0
1 92 3420 0
1 107 -3495 0
1 -107 3435 0
1 -107 -108 0
1 107 3510 0
1 107 3450 0
1 -107 92 0
1 -3480 198 0
1 3480 -77 0
1 -3480 -62 0
1 -3495 3496 0
1 3495 -107 0
1 3495 183 0
1 3495 92 0
1 3510 -3511 0
1 -3510 -3525 0
1 -3510 -107 0
1 -3525 138 0
1 3525 -3510 0
1 -3525 -123 0
1 -122 -3465 0
1 -137 -3330 0
1 137 3465 0
1 -137 138 0
1 -137 -3435 0
1 152 3330 0
1 152 167 0
1 152 3495 0
1 152 3435 0
1 -152 -3345 0
1 152 -151 0
1 152 -3390 0
1 167 3375 0
1 -167 -3450 0
1 -3420 197 0
1 -3420 167 0
1 3420 -122 0
1 -3435 197 0
1 -3435 -92 0
1 -3450 257 0
1 3450 -228 0
1 -3450 -137 0
1 -3450 183 0
1 -3450 152 0
1 -3450 -122 0
1 3465 242 0
1 3465 -183 0
1 -3465 -152 0
1 -182 3360 0
1 -182 -3330 0
1 182 -3300 0
1 182 3405 0
1 -182 -3375 0
1 -182 -3285 0
1 182 183 0
1 197 -3360 0
1 -197 -196 0
1 197 3300 0
1 197 -3270 0
1 197 3345 0
1 -197 -3315 0
1 197 -3420 0
1 -197 -3390 0
1 -212 -3331 0
1 212 -3435 0
1 212 -211 0
1 -212 3316 0
1 -212 -3285 0
1 212 3390 0
1 -227 3360 0
1 227 226 0
1 227 3301 0
1 227 3390 0
1 3360 167 0
1 3360 241 0
1 3360 317 0
1 -3360 286 0
1 3375 256 0
1 -3375 302 0
1 3375 -3376 0
1 -3375 -241 0
1 3390 -257 0
1 3390 3405 0
1 3405 -197 0
1 3405 -287 0
1 -241 256 0
1 -241 3210 0
1 -241 242 0
1 241 -3316 0
1 241 -3285 0
1 -241 3255 0
1 256 3210 0
1 -256 -3255 0
1 256 255 0
1 -271 -3331 0
1 271 272 0
1 -271 3346 0
1 271 -3225 0
1 286 -3210 0
1 286 3375 0
1 286 -3286 0
1 286 3256 0
1 -286 -3225 0
1 3301 227 0
1 -3301 -3302 0
1 3301 331 0
1 3301 241 0
1 -3301 316 0
1 3316 -256 0
1 -3316 -3301 0
1 -3316 271 0
1 -3316 -3317 0
1 3316 377 0
1 -3316 -346 0
1 -3316 -316 0
1 -3331 -256 0
1 3331 227 0
1 -3331 -271 0
1 3331 -212 0
1 -3331 317 0
1 -3346 -3345 0
1 -3346 -347 0
1 -301 3241 0
1 301 300 0
1 -301 3256 0
1 301 3195 0
1 301 -3166 0
1 316 3301 0
1 316 -3286 0
1 -316 3256 0
1 -316 -3225 0
1 316 315 0
1 316 3166 0
1 -331 -330 0
1 331 3181 0
1 331 -3151 0
1 331 3316 0
1 -346 -3301 0
1 346 3241 0
1 346 3151 0
1 346 -345 0
1 346 -3166 0
1 3241 361 0
1 -3241 3242 0
1 -3241 436 0
1 3241 -406 0
1 3241 346 0
1 3241 -286 0
1 -3256 421 0
1 -3256 406 0
1 3256 -376 0
1 3256 316 0
1 -3271 -421 0
1 -3271 -392 0
1 3271 3286 0
1 -3286 436 0
1 -3286 377 0
1 376 -361 0
1 -376 -3121 0
1 376 -375 0
1 376 3256 0
1 376 -3226 0
1 -391 3137 0
1 391 392 0
1 391 -3211 0
1 -391 -3152 0
1 391 -3091 0
1 -391 406 0
1 -391 3256 0
1 -391 -3226 0
1 406 3122 0
1 -406 -3226 0
1 3181 -361 0
1 -3181 331 0
1 3181 3180 0
1 3181 -3182 0
1 3181 -465 0
1 -3196 465 0
1 3196 406 0
1 3211 481 0
1 -3211 361 0
1 -3211 3210 0
1 3211 496 0
1 3211 436 0
1 -3211 -406 0
1 3226 -481 0
1 3226 451 0
1 3226 -421 0
1 3226 331 0
1 -3226 -406 0
1 3226 -346 0
1 420 -3076 0
1 -420 -3046 0
1 420 3181 0
1 -420 3091 0
1 -435 -3137 0
1 435 -3106 0
1 435 3181 0
1 -435 -3152 0
1 435 3091 0
1 450 -3077 0
1 -450 3181 0
1 -450 -3167 0
1 465 450 0
1 465 3107 0
1 465 3152 0
1 465 -3122 0
1 465 -3092 0
1 465 -3062 0
1 3122 -480 0
1 -3122 450 0
1 3122 -435 0
1 -3122 3123 0
1 -3137 480 0
1 -3137 -3136 0
1 -3137 420 0
1 3137 -3122 0
1 -3137 435 0
1 -3137 541 0
1 -3152 496 0
1 -3152 3153 0
1 -3152 -435 0
1 -3167 526 0
1 480 3046 0
1 -480 -3122 0
1 -480 -3062 0
1 480 -3031 0
1 495 3137 0
1 -495 3046 0
1 495 -3016 0
1 495 3062 0
1 -510 -525 0
1 -510 -3062 0
1 -525 3107 0
1 525 -3077 0
1 525 -526 0
1 525 3002 0
1 3062 480 0
1 3062 -495 0
1 3062 -600 0
1 3077 -450 0
1 3077 -3078 0
1 -3077 -615 0
1 -3077 -525 0
1 -3077 -465 0
1 3077 -3062 0
1 -3092 3093 0
1 3092 -571 0
1 -3092 -510 0
1 3107 -450 0
1 -3107 -465 0
1 3107 3092 0
1 -540 -3047 0
1 540 -3017 0
1 540 -3062 0
1 540 3002 0
1 -540 -541 0
1 555 -3077 0
1 555 -3047 0
1 555 -556 0
1 570 3047 0
1 -570 -585 0
1 -570 -3017 0
1 -570 -571 0
1 -585 570 0
1 -3002 555 0
1 3002 -525 0
1 3002 -3001 0
1 -3017 -660 0
1 -3017 510 0
1 -3032 -645 0
1 3032 615 0
1 3032 -555 0
1 -3032 -630 0
1 3032 570 0
1 3032 -510 0
1 3047 -645 0
1 3047 -555 0
1 3047 510 0
1 63 3660 0
1 -78 3675 0
1 -93 -3660 0
1 -93 94 0
1 -108 109 0
1 -108 3630 0
1 108 -3600 0
1 108 -3705 0
1 -3660 -199 0
1 -3660 93 0
1 -3675 108 0
1 3675 3676 0
1 -3675 -63 0
1 3690 -139 0
1 3690 3691 0
1 -3690 -3705 0
1 3690 154 0
1 -3690 63 0
1 -3705 3706 0
1 3705 124 0
1 3705 93 0
1 3705 -63 0
1 -123 3525 0
1 -123 3630 0
1 123 -3600 0
1 -123 3615 0
1 -138 3660 0
1 138 -3630 0
1 -138 3675 0
1 -153 3585 0
1 153 -168 0
1 153 3630 0
1 -153 3510 0
1 153 152 0
1 -168 -3585 0
1 -168 3555 0
1 168 3525 0
1 -168 3600 0
1 -168 -3570 0
1 -168 3540 0
1 -168 -3510 0
1 3600 228 0
1 3600 153 0
1 3615 -168 0
1 -3615 -108 0
1 -3615 3600 0
1 3615 -123 0
1 3630 258 0
1 3630 -199 0
1 3630 243 0
1 -3645 -258 0
1 -3645 168 0
1 3645 138 0
1 3645 -93 0
1 -183 3585 0
1 -183 3465 0
1 -183 3570 0
1 183 -3615 0
1 198 3570 0
1 -198 3450 0
1 213 228 0
1 -213 -3600 0
1 -213 -3615 0
1 228 227 0
1 228 -229 0
1 -228 3600 0
1 228 -3570 0
1 228 213 0
1 228 3481 0
1 -228 -3450 0
1 228 3615 0
1 -3540 198 0
1 3540 168 0
1 3540 303 0
1 3540 213 0
1 3555 -228 0
1 3555 272 0
1 -3555 3540 0
1 3555 213 0
1 3555 318 0
1 3570 288 0
1 -3570 -228 0
1 3570 -243 0
1 -3570 3571 0
1 3570 -318 0
1 -3585 -288 0
1 -3585 -228 0
1 3585 -273 0
1 -242 -3555 0
1 -242 3496 0
1 242 3465 0
1 -242 -241 0
1 -242 243 0
1 -242 3511 0
1 -257 -256 0
1 -257 3540 0
1 -272 3496 0
1 -272 -3390 0
1 -287 -3526 0
1 -287 -3496 0
1 287 272 0
1 -287 3540 0
1 -3481 332 0
1 3481 317 0
1 -3496 -228 0
1 3496 -3497 0
1 3496 213 0
1 -3496 -378 0
1 -3496 317 0
1 -3511 -257 0
1 -3511 -3526 0
1 -3511 -303 0
1 -3511 3510 0
1 -3526 -257 0
1 3526 -228 0
1 -3526 3525 0
1 -3526 242 0
1 3526 3511 0
1 3526 -318 0
1 -3526 287 0
1 -302 -303 0
1 302 3375 0
1 302 -317 0
1 302 -3390 0
1 -317 3390 0
1 317 3405 0
1 317 -3346 0
1 317 -3481 0
1 -317 3451 0
1 -332 -3361 0
1 -332 3346 0
1 -332 3451 0
1 -332 -347 0
1 347 -3496 0
1 347 -332 0
1 347 3436 0
1 -347 3376 0
1 347 -346 0
1 3421 -302 0
1 3421 -272 0
1 3421 -287 0
1 3436 -3437 0
1 3436 -437 0
1 -3436 407 0
1 3436 3421 0
1 3436 317 0
1 3451 3466 0
1 3451 -363 0
1 3451 -302 0
1 -3451 -272 0
1 -3451 437 0
1 -3451 -378 0
1 3451 -347 0
1 3451 3452 0
1 -3451 -317 0
1 3466 -378 0
1 362 -3331 0
1 -362 -3316 0
1 377 -3331 0
1 377 -3301 0
1 377 362 0
1 -377 -3406 0
1 392 -3271 0
1 -392 3406 0
1 407 406 0
1 3361 -392 0
1 3361 466 0
1 -3361 436 0
1 3376 -451 0
1 3376 -421 0
1 3376 -362 0
1 -3376 -347 0
1 -3391 3392 0
1 -3391 -362 0
1 3391 332 0
1 -3391 377 0
1 3391 347 0
1 -3406 482 0
1 -3406 -452 0
1 3406 -392 0
1 3406 332 0
1 -3406 -497 0
1 -3406 467 0
1 -3406 347 0
1 -421 3361 0
1 421 3332 0
1 -421 3271 0
1 -421 3241 0
1 -421 -436 0
1 -421 -3286 0
1 436 3376 0
1 436 437 0
1 451 452 0
1 -451 -3242 0
1 -466 3242 0
1 466 3376 0
1 -466 467 0
1 -466 -3287 0
1 3302 481 0
1 3302 421 0
1 -3302 557 0
1 -3302 -466 0
1 -3317 -3302 0
1 -3317 392 0
1 -3317 -466 0
1 3317 -436 0
1 -3332 -451 0
1 -3332 -497 0
1 3332 -407 0
1 -3347 482 0
1 -3347 421 0
1 -3347 -497 0
1 3347 3346 0
1 3347 407 0
1 481 -3272 0
1 -481 496 0
1 -481 3317 0
1 481 3226 0
1 496 3302 0
1 -496 -497 0
1 496 -3226 0
1 511 -512 0
1 511 -3272 0
1 511 -3242 0
1 511 -3212 0
1 511 3182 0
1 -511 3197 0
1 511 3167 0
1 -526 3287 0
1 526 -3197 0
1 -3242 586 0
1 3242 571 0
1 3242 -541 0
1 -3242 511 0
1 3257 481 0
1 3257 -616 0
1 -3257 -3242 0
1 3257 526 0
1 3257 511 0
1 -3272 481 0
1 3272 -587 0
1 3272 557 0
1 -3272 496 0
1 -3272 -466 0
1 3287 451 0
1 -3287 -616 0
1 3287 -587 0
1 3287 3286 0
1 -3287 601 0
1 541 3107 0
1 541 3242 0
1 -541 -3212 0
1 -541 3257 0
1 541 -3227 0
1 -541 -3197 0
1 556 -555 0
1 -556 557 0
1 556 -3257 0
1 556 3227 0
1 556 -541 0
1 -571 3212 0
1 -586 -585 0
1 -586 3242 0
1 -586 3212 0
1 -586 3153 0
1 586 -571 0
1 3182 676 0
1 -3182 630 0
1 -3182 -3197 0
1 -3197 -615 0
1 -3197 586 0
1 3197 -556 0
1 3197 600 0
1 -3197 -3196 0
1 3212 -511 0
1 -3227 586 0
1 -3227 526 0
1 3227 631 0
1 -3227 571 0
1 3227 541 0
1 600 -3168 0
1 -600 3138 0
1 600 3123 0
1 600 3062 0
1 -600 3032 0
1 600 601 0
1 615 -3168 0
1 615 3107 0
1 -615 -3077 0
1 -615 -3182 0
1 -630 3168 0
1 630 3063 0
1 645 3138 0
1 645 -3047 0
1 645 -3078 0
1 645 3182 0
1 -645 -3093 0
1 645 -3032 0
1 645 3197 0
1 -3123 -705 0
1 3123 -645 0
1 -3123 -600 0
1 3138 3137 0
1 -3138 -3139 0
1 -3138 615 0
1 -3138 721 0
1 3138 -600 0
1 3138 -571 0
1 3153 3168 0
1 -3153 3154 0
1 -3168 3169 0
1 3168 -676 0
1 -3168 -645 0
1 3168 -721 0
1 -3168 691 0
1 3168 -661 0
1 -3168 -630 0
1 660 3138 0
1 660 3047 0
1 -660 3032 0
1 660 3002 0
1 675 676 0
1 -675 -3078 0
1 675 660 0
1 675 -3032 0
1 -690 -705 0
1 690 3078 0
1 690 -3063 0
1 -690 -3033 0
1 -690 3003 0
1 705 3108 0
1 -705 690 0
1 -705 3063 0
1 3063 -750 0
1 -3063 765 0
1 -3078 645 0
1 -3078 3077 0
1 -3078 -780 0
1 -3078 -750 0
1 3078 630 0
1 -3078 3063 0
1 -3093 736 0
1 -3093 675 0
1 3093 645 0
1 -3108 795 0
1 720 -3078 0
1 -720 -3048 0
1 -720 3033 0
1 -720 3003 0
1 -735 736 0
1 735 3018 0
1 -735 3063 0
1 -750 3078 0
1 750 3063 0
1 -765 3018 0
1 765 750 0
1 -765 3063 0
1 -765 3003 0
1 3003 840 0
1 -3003 720 0
1 -3003 855 0
1 3003 3004 0
1 -3003 735 0
1 3018 -840 0
1 3018 -750 0
1 3018 720 0
1 -3018 855 0
1 -3018 -765 0
1 3033 780 0
1 3033 750 0
1 3033 3032 0
1 3033 -3034 0
1 -3048 705 0
1 -3048 750 0
1 3048 825 0
1 3048 795 0
1 -3048 3033 0
1 3048 765 0
1 3048 -735 0
1 -64 3855 0
1 -79 64 0
1 79 3840 0
1 -79 -3855 0
1 94 -109 0
1 94 -3870 0
1 -109 3810 0
1 109 3870 0
1 -109 -94 0
1 -3855 -154 0
1 3870 -109 0
1 3870 -3885 0
1 -3870 79 0
1 -3870 94 0
1 -3870 -3871 0
1 3885 64 0
1 3885 79 0
1 3885 -3870 0
1 3885 94 0
1 -124 -3780 0
1 -124 -3855 0
1 124 -123 0
1 139 -3705 0
1 139 124 0
1 154 3720 0
1 154 3690 0
1 154 3855 0
1 154 3705 0
1 154 3795 0
1 169 3840 0
1 169 3810 0
1 -169 3825 0
1 -169 3705 0
1 -169 154 0
1 3780 -259 0
1 -3780 -199 0
1 3780 -109 0
1 3780 -3795 0
1 -3780 94 0
1 -3795 -229 0
1 -3795 -124 0
1 3810 259 0
1 3810 -124 0
1 -184 3735 0
1 -184 3630 0
1 -184 3705 0
1 -184 -183 0
1 -184 3675 0
1 -199 -198 0
1 199 3735 0
1 199 3705 0
1 199 3675 0
1 214 3735 0
1 -214 3691 0
1 214 3661 0
1 214 -3630 0
1 -214 3706 0
1 214 -3676 0
1 229 -3720 0
1 -229 3661 0
1 -229 3795 0
1 -229 -3645 0
1 3720 199 0
1 -3720 304 0
1 -3720 -214 0
1 -3720 184 0
1 -3735 -3736 0
1 -3750 -229 0
1 -3750 -199 0
1 3750 -274 0
1 -3765 -289 0
1 -3765 169 0
1 -3765 -304 0
1 -3765 -154 0
1 -3765 319 0
1 243 3661 0
1 -258 3585 0
1 -258 -3661 0
1 258 3676 0
1 -273 -288 0
1 273 3585 0
1 273 -3720 0
1 273 -3661 0
1 -273 -3631 0
1 273 272 0
1 -273 -3646 0
1 288 -3720 0
1 288 -3691 0
1 288 3631 0
1 288 3735 0
1 288 -3676 0
1 288 -3646 0
1 288 -287 0
1 -3661 -364 0
1 3661 -303 0
1 -3661 -3662 0
1 3676 -3675 0
1 3691 -273 0
1 3691 -214 0
1 -3691 -379 0
1 3706 -258 0
1 -3706 364 0
1 3706 -3707 0
1 3706 -334 0
1 -3706 -273 0
1 3706 243 0
1 -3706 214 0
1 -3706 -319 0
1 -318 3511 0
1 -318 3676 0
1 -318 -317 0
1 318 -3646 0
1 -333 -3586 0
1 -333 -3556 0
1 -333 3661 0
1 333 3631 0
1 -333 -3601 0
1 -348 -3586 0
1 -348 -3541 0
1 3601 -423 0
1 -3601 -3602 0
1 -3601 -438 0
1 -3616 -3617 0
1 -3616 -303 0
1 3616 -273 0
1 -3616 348 0
1 3616 -3615 0
1 3631 288 0
1 -3631 -364 0
1 -3631 -333 0
1 -3631 -3632 0
1 3631 438 0
1 -3631 409 0
1 -3631 348 0
1 3631 318 0
1 -3646 3631 0
1 -3646 409 0
1 -363 -3616 0
1 363 3526 0
1 363 3496 0
1 363 362 0
1 363 -3601 0
1 -363 -3541 0
1 -378 3556 0
1 378 -3601 0
1 -378 3451 0
1 -378 3511 0
1 -378 -377 0
1 393 3527 0
1 -393 -3497 0
1 -393 394 0
1 -393 408 0
1 -393 -3451 0
1 -408 393 0
1 -408 3451 0
1 3541 -483 0
1 -3541 -333 0
1 3541 498 0
1 3556 483 0
1 3556 -452 0
1 -3556 3557 0
1 -3556 -393 0
1 -3556 -467 0
1 3556 378 0
1 -3571 -363 0
1 3571 333 0
1 3571 -3570 0
1 3571 -468 0
1 -3571 438 0
1 -3571 -348 0
1 -3586 -3587 0
1 -3586 408 0
1 3586 378 0
1 3586 348 0
1 422 3556 0
1 -422 3527 0
1 -422 -3406 0
1 422 -3482 0
1 -422 3391 0
1 -437 -3527 0
1 -437 -3466 0
1 437 -3406 0
1 -437 -3512 0
1 -437 -3482 0
1 -452 3556 0
1 452 467 0
1 452 3391 0
1 467 -3556 0
1 467 3527 0
1 -467 -466 0
1 -467 3482 0
1 -467 -3422 0
1 3482 393 0
1 3482 3497 0
1 -3482 -527 0
1 -3482 -408 0
1 3482 -543 0
1 3497 -422 0
1 3497 -467 0
1 3497 -3482 0
1 3497 543 0
1 -3512 422 0
1 -3512 558 0
1 3512 3513 0
1 3527 -3512 0
1 -3527 3528 0
1 3527 -558 0
1 3527 -408 0
1 482 -3497 0
1 -482 -3406 0
1 -482 -3376 0
1 482 3482 0
1 -497 -482 0
1 497 -3332 0
1 497 -3347 0
1 497 -3452 0
1 -497 3422 0
1 512 3407 0
1 512 3347 0
1 512 -3452 0
1 -527 3392 0
1 527 -3362 0
1 527 -3332 0
1 -527 -3497 0
1 -527 -528 0
1 3422 467 0
1 -3422 602 0
1 3422 -3421 0
1 3422 3423 0
1 -3437 -617 0
1 -3437 3438 0
1 -3437 527 0
1 3452 -558 0
1 -3452 527 0
1 -3452 -3451 0
1 3452 -573 0
1 -3467 482 0
1 3467 3466 0
1 3467 -558 0
1 3467 -3452 0
1 -557 3332 0
1 -557 -556 0
1 -557 558 0
1 572 3333 0
1 572 3272 0
1 572 -3377 0
1 -572 -3348 0
1 572 -3318 0
1 572 571 0
1 -572 573 0
1 587 3392 0
1 587 3407 0
1 -587 -3318 0
1 587 3287 0
1 587 3422 0
1 3362 527 0
1 -3362 631 0
1 -3362 -601 0
1 3362 572 0
1 -3377 -677 0
1 -3377 -616 0
1 -3377 527 0
1 3377 -3378 0
1 3377 601 0
1 -3392 647 0
1 -3392 -527 0
1 -3392 3407 0
1 -3392 662 0
1 -3407 -677 0
1 -3407 -617 0
1 3407 -557 0
1 -3407 3406 0
1 -3407 -602 0
1 601 -3362 0
1 -601 -3242 0
1 -601 -602 0
1 616 -3333 0
1 616 615 0
1 616 -3348 0
1 631 3333 0
1 -631 646 0
1 -631 3303 0
1 631 -3377 0
1 631 -632 0
1 -631 3258 0
1 646 -3273 0
1 646 3243 0
1 -646 3212 0
1 646 -3377 0
1 -646 631 0
1 -3303 -616 0
1 -3303 -691 0
1 3303 601 0
1 3318 -706 0
1 -3318 -676 0
1 -3318 -646 0
1 3318 -616 0
1 3318 722 0
1 -3318 -3317 0
1 -3318 -601 0
1 -3333 -3332 0
1 3333 677 0
1 -3333 616 0
1 3333 722 0
1 3333 662 0
1 -3348 616 0
1 3348 -587 0
1 3348 -3347 0
1 3348 662 0
1 -661 3303 0
1 661 -3243 0
1 661 -660 0
1 -661 -662 0
1 -661 3197 0
1 -676 3303 0
1 676 -3153 0
1 676 -3288 0
1 -691 -3303 0
1 691 3243 0
1 691 -3213 0
1 691 3183 0
1 691 690 0
1 691 -692 0
1 691 3258 0
1 -706 -707 0
1 -706 -3243 0
1 -706 691 0
1 706 3318 0
1 706 3258 0
1 706 -3228 0
1 -3243 -676 0
1 3243 -646 0
1 -3243 3244 0
1 3243 -751 0
1 3243 -721 0
1 -3243 -691 0
1 -3243 -661 0
1 -3243 796 0
1 -3258 706 0
1 3258 3243 0
1 3258 631 0
1 3258 -3257 0
1 3258 3259 0
1 3273 646 0
1 -3273 3272 0
1 3273 -661 0
1 3273 -631 0
1 3288 -781 0
1 -3288 661 0
1 721 -3108 0
1 -721 3093 0
1 721 -3198 0
1 -736 -3213 0
1 736 3183 0
1 736 3123 0
1 -751 3108 0
1 -751 3258 0
1 -751 3243 0
1 -751 -750 0
1 -751 752 0
1 751 -3154 0
1 -751 -766 0
1 766 3139 0
1 -766 -3258 0
1 3183 -736 0
1 -3183 841 0
1 3183 -3184 0
1 -3183 -3198 0
1 3183 795 0
1 -3183 766 0
1 -3198 -721 0
1 -3198 -825 0
1 -3198 -766 0
1 -3213 -706 0
1 3213 3212 0
1 3213 -751 0
1 -3213 -721 0
1 3213 -856 0
1 -3228 841 0
1 -3228 -811 0
1 -3228 -751 0
1 -3228 -721 0
1 3228 856 0
1 -3228 3227 0
1 780 -3078 0
1 -780 3124 0
1 780 795 0
1 -795 -3033 0
1 810 -3139 0
1 810 -3079 0
1 -810 -3154 0
1 -810 -3033 0
1 825 -810 0
1 -825 -3124 0
1 -825 -3033 0
1 825 3198 0
1 -3124 780 0
1 3124 916 0
1 -3139 751 0
1 3139 916 0
1 3139 825 0
1 -3154 780 0
1 -3154 -856 0
1 3154 -795 0
1 3169 871 0
1 -3169 -751 0
1 -3169 3154 0
1 -840 3048 0
1 -840 841 0
1 840 3124 0
1 840 -3094 0
1 840 -855 0
1 -840 3033 0
1 -855 -3139 0
1 -855 -3109 0
1 855 -3033 0
1 -870 -3139 0
1 870 -3079 0
1 -870 -3049 0
1 885 -3079 0
1 -885 -3049 0
1 -885 886 0
1 -885 -3004 0
1 3079 -3078 0
1 -3079 -810 0
1 3079 945 0
1 3094 870 0
1 3094 3109 0
1 -3094 -840 0
1 3094 -3093 0
1 3094 825 0
1 3109 -870 0
1 -3109 -946 0
1 -3109 916 0
1 -3109 885 0
1 900 3049 0
1 900 -915 0
1 -900 -3004 0
1 -915 3004 0
1 930 -931 0
1 930 -3034 0
1 -945 3019 0
1 -945 946 0
1 -945 -3034 0
1 -3004 870 0
1 3004 -945 0
1 3019 3018 0
1 3019 -885 0
1 3034 -930 0
1 -3034 900 0
1 -3034 3049 0
1 -3034 945 0
1 3034 -885 0
1 -3049 3048 0
1 3049 915 0
1 -244 259 0
1 244 -3780 0
1 244 3750 0
1 -244 3886 0
1 244 -3795 0
1 -259 3750 0
1 -259 3856 0
1 -259 -3795 0
1 259 244 0
1 -259 3765 0
1 -274 3750 0
1 274 273 0
1 -289 288 0
1 289 -3750 0
1 -3841 3842 0
1 -3841 -3856 0
1 3856 289 0
1 3856 -259 0
1 3856 349 0
1 3871 244 0
1 3886 -274 0
1 -304 -3720 0
1 304 3856 0
1 304 -3765 0
1 -304 -3706 0
1 -319 -3841 0
1 319 304 0
1 319 -3856 0
1 -319 -3796 0
1 -334 -3721 0
1 334 3691 0
1 -334 -3856 0
1 334 -3826 0
1 -334 -3766 0
1 334 349 0
1 -349 3841 0
1 349 -3706 0
1 3781 274 0
1 3781 3796 0
1 -3781 439 0
1 -3781 379 0
1 -3781 -349 0
1 3781 319 0
1 3796 -289 0
1 3796 -3797 0
1 3796 409 0
1 -3811 304 0
1 -3826 -274 0
1 3826 3827 0
1 -364 3721 0
1 -364 -3691 0
1 -379 -3781 0
1 379 -364 0
1 379 3766 0
1 379 3676 0
1 -394 3781 0
1 394 -3751 0
1 -394 393 0
1 -394 -3721 0
1 -394 -3662 0
1 394 -3631 0
1 394 -3796 0
1 394 -3766 0
1 394 -3736 0
1 394 3707 0
1 -394 -3646 0
1 -409 3751 0
1 -409 -394 0
1 409 -3646 0
1 3721 484 0
1 -3721 -3722 0
1 -3721 468 0
1 3721 3736 0
1 -3736 -423 0
1 3736 394 0
1 3736 334 0
1 -3736 -3737 0
1 -3736 438 0
1 -3736 -3735 0
1 -3736 -409 0
1 -3751 454 0
1 3751 -3750 0
1 -3751 -3752 0
1 -3751 -3766 0
1 3751 439 0
1 3766 394 0
1 3766 364 0
1 3766 -499 0
1 3766 469 0
1 -3766 439 0
1 -3766 409 0
1 423 -3616 0
1 -423 -422 0
1 -423 -3646 0
1 -438 3692 0
1 -438 3601 0
1 -438 -3571 0
1 438 -437 0
1 -438 3707 0
1 438 3677 0
1 453 3617 0
1 -453 -3692 0
1 453 3602 0
1 453 3571 0
1 -453 3707 0
1 468 -3617 0
1 468 -3721 0
1 -468 -3662 0
1 -468 3632 0
1 -468 467 0
1 468 3571 0
1 468 -469 0
1 -3662 -483 0
1 -3662 -559 0
1 -3662 409 0
1 3677 -483 0
1 3677 -453 0
1 -3677 423 0
1 -3677 394 0
1 -3677 -559 0
1 -3677 468 0
1 3677 -438 0
1 3692 -544 0
1 -3692 559 0
1 -3692 -409 0
1 3707 -544 0
1 3707 -484 0
1 3707 453 0
1 -3707 -529 0
1 3707 -499 0
1 -3707 -438 0
1 -483 3617 0
1 -483 484 0
1 483 3556 0
1 483 3512 0
1 498 -483 0
1 498 -497 0
1 498 499 0
1 513 -3587 0
1 -513 -3557 0
1 513 -3602 0
1 513 -3677 0
1 513 3647 0
1 -528 -3557 0
1 -528 3632 0
1 -528 -3677 0
1 3602 -3617 0
1 -3602 -453 0
1 3602 588 0
1 -3602 -3601 0
1 3617 -3618 0
1 -3617 483 0
1 -3617 528 0
1 -3617 3602 0
1 -3617 603 0
1 3617 543 0
1 -3632 544 0
1 -3632 483 0
1 -3632 528 0
1 3632 -603 0
1 -3632 3647 0
1 -3647 453 0
1 -3647 -559 0
1 3647 -498 0
1 3647 -468 0
1 3647 574 0
1 543 -3557 0
1 -543 3527 0
1 -543 3497 0
1 543 -3572 0
1 558 -3572 0
1 558 -3512 0
1 558 3482 0
1 573 3572 0
1 -573 -3452 0
1 588 3542 0
1 -588 3483 0
1 588 -573 0
1 3542 -678 0
1 -3542 617 0
1 -3542 588 0
1 -3542 -528 0
1 3542 602 0
1 3557 588 0
1 3557 528 0
1 -3557 632 0
1 -3557 543 0
1 -3572 -648 0
1 3572 -588 0
1 3572 -528 0
1 -3572 3573 0
1 3572 633 0
1 3572 -603 0
1 3587 -3586 0
1 3587 3588 0
1 3587 -678 0
1 -3587 -648 0
1 3587 -588 0
1 3587 -558 0
1 3587 -528 0
1 -3587 3572 0
1 3587 603 0
1 3587 573 0
1 -602 -3392 0
1 602 3483 0
1 602 -601 0
1 -617 3392 0
1 617 3528 0
1 -617 3437 0
1 -617 -3513 0
1 632 647 0
1 -632 3407 0
1 -632 3542 0
1 -647 3392 0
1 -647 -648 0
1 -647 -3438 0
1 -647 -3483 0
1 -647 -3453 0
1 3483 -738 0
1 3483 -677 0
1 3483 -3482 0
1 3483 -632 0
1 3483 573 0
1 3498 -647 0
1 -3498 -692 0
1 3498 662 0
1 3498 -602 0
1 -3498 573 0
1 3513 647 0
1 3513 -617 0
1 3513 3528 0
1 -3528 -678 0
1 3528 647 0
1 3528 723 0
1 3528 663 0
1 662 3333 0
1 -662 677 0
1 -662 -3438 0
1 -662 -3407 0
1 662 -3483 0
1 -677 676 0
1 -677 678 0
1 677 -3498 0
1 -677 -662 0
1 -692 3438 0
1 692 -3408 0
1 -692 -3348 0
1 -692 -693 0
1 707 3363 0
1 707 708 0
1 -707 -3333 0
1 -707 3498 0
1 -707 3348 0
1 -3423 677 0
1 -3423 782 0
1 3423 3438 0
1 -3423 752 0
1 3423 3422 0
1 -3438 -737 0
1 -3438 -3423 0
1 3438 647 0
1 3438 -797 0
1 3438 767 0
1 -3453 -707 0
1 -3453 647 0
1 -3453 -3468 0
1 3453 -3452 0
1 -3468 768 0
1 -3468 -738 0
1 -3468 -782 0
1 3468 723 0
1 3468 632 0
1 722 3303 0
1 722 3273 0
1 -722 3423 0
1 737 -3348 0
1 -737 -3288 0
1 -752 3438 0
1 -752 3408 0
1 -767 -3393 0
1 -767 -3378 0
1 -767 3319 0
1 767 -3288 0
1 3363 -3364 0
1 -3363 -842 0
1 3363 -722 0
1 -3378 842 0
1 3378 -781 0
1 3378 752 0
1 -3378 692 0
1 3378 857 0
1 -3378 -796 0
1 -3378 767 0
1 3393 -812 0
1 -3393 782 0
1 -3393 -722 0
1 -3393 -692 0
1 -3393 857 0
1 -3393 -797 0
1 3408 -707 0
1 -3408 -812 0
1 -3408 -752 0
1 3408 722 0
1 -3408 -827 0
1 -3408 -767 0
1 781 -3334 0
1 -781 -3273 0
1 781 3213 0
1 781 -782 0
1 781 -3378 0
1 781 3349 0
1 -781 -3288 0
1 781 3258 0
1 -796 3304 0
1 -796 -781 0
1 -796 3378 0
1 -796 3349 0
1 -796 -3319 0
1 -796 3288 0
1 811 3304 0
1 811 -810 0
1 -811 3213 0
1 -811 3244 0
1 811 3319 0
1 811 3289 0
1 -826 3363 0
1 826 -3304 0
1 -826 3274 0
1 826 3378 0
1 3304 902 0
1 3304 -811 0
1 -3304 781 0
1 3304 -886 0
1 3304 826 0
1 3319 -781 0
1 -3319 -886 0
1 -3319 -856 0
1 -3319 826 0
1 3334 842 0
1 3334 811 0
1 3334 917 0
1 -3334 -857 0
1 -3334 826 0
1 -3334 -796 0
1 -3349 -872 0
1 -3349 781 0
1 -3349 -887 0
1 -841 3169 0
1 -841 3183 0
1 841 3289 0
1 -856 -3169 0
1 -856 3304 0
1 856 -841 0
1 -856 3319 0
1 -856 857 0
1 -871 872 0
1 871 3244 0
1 -871 -3214 0
1 871 -3184 0
1 -886 3169 0
1 -886 -871 0
1 886 -3304 0
1 -886 885 0
1 -3244 901 0
1 -3244 841 0
1 -3244 916 0
1 -3244 -856 0
1 -3259 -931 0
1 -3259 -916 0
1 3259 886 0
1 3274 -3273 0
1 3274 886 0
1 3289 932 0
1 3289 -902 0
1 -3289 -871 0
1 3289 841 0
1 916 3139 0
1 -916 3214 0
1 -916 3184 0
1 916 3154 0
1 916 915 0
1 916 917 0
1 -931 3109 0
1 931 946 0
1 -946 3109 0
1 -946 3094 0
1 946 3199 0
1 -3184 931 0
1 -3184 -901 0
1 -3184 -916 0
1 3199 -901 0
1 -3214 901 0
1 3229 -3228 0
1 -424 3842 0
1 -424 3781 0
1 -424 -3796 0
1 424 -3766 0
1 -424 -439 0
1 -439 3872 0
1 -439 -3842 0
1 -439 3811 0
1 -454 3872 0
1 -454 3812 0
1 454 3887 0
1 469 -3857 0
1 3842 484 0
1 3842 -499 0
1 -3842 439 0
1 3857 514 0
1 -3857 424 0
1 -3857 529 0
1 -3857 -499 0
1 -3872 424 0
1 3872 3887 0
1 -3872 469 0
1 -3872 439 0
1 3872 -3871 0
1 -3887 -424 0
1 -484 -483 0
1 484 3751 0
1 -499 3812 0
1 499 -3782 0
1 499 -3857 0
1 499 -3736 0
1 -514 3812 0
1 -514 3752 0
1 514 -3857 0
1 514 -3707 0
1 -529 -514 0
1 -529 3782 0
1 529 -3692 0
1 529 3797 0
1 -529 -3737 0
1 3782 484 0
1 -3782 589 0
1 3782 -604 0
1 -3797 544 0
1 -3797 484 0
1 3797 454 0
1 -3797 -469 0
1 3797 3798 0
1 -3812 514 0
1 -3812 -484 0
1 -3812 -454 0
1 -3812 529 0
1 -3812 -469 0
1 3827 -529 0
1 -3827 3828 0
1 544 -3782 0
1 -544 3752 0
1 -544 -3797 0
1 544 3707 0
1 -559 3782 0
1 559 3752 0
1 559 3722 0
1 -559 558 0
1 559 -3767 0
1 -574 3782 0
1 -574 -3722 0
1 -574 -3693 0
1 574 -3797 0
1 574 -3647 0
1 589 3752 0
1 589 -3663 0
1 -589 -3797 0
1 -589 -3767 0
1 589 -574 0
1 -589 3647 0
1 3722 -529 0
1 3737 589 0
1 3737 -529 0
1 -3737 664 0
1 3752 -649 0
1 3752 3753 0
1 3752 -529 0
1 3752 -3767 0
1 -3767 -544 0
1 3767 619 0
1 -3767 -664 0
1 -603 3708 0
1 603 -3693 0
1 603 -3632 0
1 -603 3737 0
1 603 604 0
1 603 -3678 0
1 -618 3617 0
1 618 3587 0
1 -618 617 0
1 -618 -3722 0
1 -618 -619 0
1 -618 3663 0
1 -618 3632 0
1 -633 -3693 0
1 -633 -3633 0
1 633 -3737 0
1 -633 634 0
1 648 647 0
1 648 -3737 0
1 648 -3603 0
1 648 3708 0
1 3663 -739 0
1 -3663 -678 0
1 3663 -618 0
1 -3663 693 0
1 -3678 739 0
1 -3678 -618 0
1 3678 -589 0
1 -3678 663 0
1 -3678 -3679 0
1 -3693 -739 0
1 -3693 -694 0
1 -3693 -664 0
1 3693 -603 0
1 3693 574 0
1 3708 739 0
1 -3708 -724 0
1 -3708 694 0
1 663 -678 0
1 663 -3528 0
1 -663 3603 0
1 -663 -662 0
1 663 664 0
1 -663 3513 0
1 678 -677 0
1 678 3572 0
1 -678 -3542 0
1 -693 3618 0
1 693 708 0
1 693 -3588 0
1 693 -3558 0
1 693 -3573 0
1 -693 694 0
1 693 -3543 0
1 693 -3513 0
1 693 -3678 0
1 708 -3588 0
1 -708 -3558 0
1 -708 -3633 0
1 -708 3603 0
1 -3603 -768 0
1 -3603 738 0
1 -3603 708 0
1 -3603 -663 0
1 3618 648 0
1 3618 663 0
1 -3618 633 0
1 3633 3648 0
1 3633 -739 0
1 3633 678 0
1 3633 -754 0
1 3633 663 0
1 3633 -633 0
1 -3648 -3633 0
1 -3648 -693 0
1 3648 -798 0
1 723 3468 0
1 723 -3603 0
1 -723 3513 0
1 723 3483 0
1 -738 737 0
1 738 739 0
1 -738 -3528 0
1 738 3468 0
1 738 3603 0
1 753 3618 0
1 753 -752 0
1 753 -3603 0
1 -753 3514 0
1 768 3618 0
1 -768 -3603 0
1 -768 3573 0
1 768 3543 0
1 768 3514 0
1 768 -3484 0
1 768 -3453 0
1 3543 812 0
1 -3543 -782 0
1 3543 -753 0
1 3543 -723 0
1 -3558 768 0
1 -3558 3559 0
1 3558 753 0
1 3573 3572 0
1 3573 858 0
1 -3573 -798 0
1 -3588 -3587 0
1 3588 843 0
1 3588 -783 0
1 -3588 798 0
1 782 3438 0
1 782 -3484 0
1 797 3499 0
1 -797 -3543 0
1 -797 -3484 0
1 797 3453 0
1 812 3393 0
1 -812 -811 0
1 -812 813 0
1 812 -3514 0
1 812 3484 0
1 -3484 -842 0
1 3484 812 0
1 3484 782 0
1 3484 -918 0
1 -3484 827 0
1 -3484 -797 0
1 -3499 -903 0
1 3499 782 0
1 -3499 753 0
1 3499 -887 0
1 -3499 -857 0
1 -3499 -797 0
1 -3514 -903 0
1 3514 -812 0
1 3514 -827 0
1 -3529 -873 0
1 -3529 -812 0
1 842 -843 0
1 842 -3439 0
1 -842 -3408 0
1 842 3378 0
1 842 3349 0
1 842 -3454 0
1 857 -3424 0
1 857 -3469 0
1 857 3439 0
1 872 -873 0
1 872 3469 0
1 -872 -3409 0
1 872 -3379 0
1 887 3424 0
1 -887 -872 0
1 -3424 932 0
1 -3424 872 0
1 -3424 -947 0
1 -3424 857 0
1 3424 -827 0
1 3424 3423 0
1 3439 932 0
1 -3439 -812 0
1 -3439 -917 0
1 -3454 903 0
1 3454 812 0
1 3454 -918 0
1 3454 827 0
1 3469 -933 0
1 -3469 3468 0
1 -3469 -948 0
1 -3469 887 0
1 3469 -857 0
1 -3469 -3454 0
1 -902 3424 0
1 -902 3394 0
1 902 3364 0
1 -902 -901 0
1 902 917 0
1 -902 3319 0
1 917 -3394 0
1 -917 3364 0
1 917 -3439 0
1 917 916 0
1 -932 3364 0
1 -932 3274 0
1 932 -3409 0
1 947 932 0
1 -947 -3364 0
1 -947 -3439 0
1 947 -948 0
1 3364 932 0
1 -3364 872 0
1 3364 -947 0
1 3364 3379 0
1 -3364 917 0
1 3379 902 0
1 3379 -3378 0
1 -3394 947 0
1 -3394 887 0
1 -3409 947 0
1 3409 -917 0
1 604 -3873 0
1 -604 -3797 0
1 -604 -603 0
1 619 -3812 0
1 619 -3782 0
1 -619 3858 0
1 -619 3827 0
1 634 3843 0
1 -634 -3783 0
1 634 -3858 0
1 -634 -3828 0
1 649 3752 0
1 -649 3858 0
1 -649 3767 0
1 -649 -634 0
1 -3843 709 0
1 3843 -3844 0
1 3843 619 0
1 3843 -664 0
1 3843 -634 0
1 -3858 709 0
1 3858 -619 0
1 3858 664 0
1 -3858 634 0
1 3873 3872 0
1 -3873 -649 0
1 -3873 634 0
1 3873 -604 0
1 -3888 3887 0
1 -664 -679 0
1 664 3722 0
1 -664 3828 0
1 664 3798 0
1 -664 3708 0
1 -679 -3783 0
1 -679 -3752 0
1 -679 3722 0
1 -679 -3693 0
1 -694 3843 0
1 -694 -709 0
1 -694 -3753 0
1 -694 3693 0
1 -694 -3738 0
1 709 -708 0
1 709 3768 0
1 3783 769 0
1 3783 -3782 0
1 -3783 724 0
1 -3798 739 0
1 3798 -784 0
1 -3798 634 0
1 -3798 799 0
1 3813 -3814 0
1 -3813 -649 0
1 3813 634 0
1 3828 -709 0
1 3828 -3827 0
1 3828 -634 0
1 -724 723 0
1 -724 3738 0
1 -739 -3783 0
1 -739 -3753 0
1 -739 3663 0
1 -739 -724 0
1 739 3768 0
1 -754 3723 0
1 -754 753 0
1 -754 3768 0
1 -754 -3709 0
1 769 -3694 0
1 769 -754 0
1 769 3768 0
1 3723 -769 0
1 3723 -739 0
1 3723 -844 0
1 -3723 -813 0
1 3723 3724 0
1 3723 -783 0
1 -3738 -769 0
1 -3738 -739 0
1 -3738 3723 0
1 -3738 -783 0
1 -3738 3737 0
1 3738 828 0
1 -3753 814 0
1 3753 724 0
1 3753 694 0
1 -3753 3768 0
1 3753 -799 0
1 3768 739 0
1 3768 -814 0
1 -3768 784 0
1 3768 -3769 0
1 -783 -3723 0
1 783 -3694 0
1 783 3633 0
1 783 -3603 0
1 783 3738 0
1 -783 -3709 0
1 798 -3709 0
1 -798 -3573 0
1 798 -3738 0
1 813 -3723 0
1 -813 3664 0
1 813 -3634 0
1 -828 3588 0
1 828 -829 0
1 -3664 -769 0
1 3664 843 0
1 -3664 -919 0
1 3664 858 0
1 3679 3678 0
1 3679 -3664 0
1 3679 -858 0
1 -3679 798 0
1 3694 874 0
1 3694 813 0
1 3694 783 0
1 3694 -754 0
1 -3694 -919 0
1 -3709 -769 0
1 -3709 -754 0
1 3709 -889 0
1 3709 828 0
1 3709 798 0
1 -843 -3649 0
1 843 3558 0
1 -843 -844 0
1 843 -3604 0
1 -843 -3543 0
1 843 -3514 0
1 -858 -3649 0
1 -858 -3619 0
1 -858 3588 0
1 858 -3664 0
1 -858 -3604 0
1 858 -3514 0
1 -858 -3679 0
1 873 3649 0
1 -873 3529 0
1 -873 888 0
1 888 -3589 0
1 -888 -3559 0
1 888 3634 0
1 -888 -3574 0
1 888 -887 0
1 888 -3679 0
1 -3604 -903 0
1 -3604 -3603 0
1 3604 -918 0
1 -3604 888 0
1 -3604 -828 0
1 -3619 873 0
1 -3619 -813 0
1 -3619 -888 0
1 3619 -858 0
1 -3634 873 0
1 -3634 -813 0
1 3634 -828 0
1 -3649 -873 0
1 -3649 -843 0
1 3649 -3634 0
1 -903 -3619 0
1 903 -902 0
1 -903 -904 0
1 903 -3499 0
1 903 -3469 0
1 903 -918 0
1 -903 3484 0
1 -918 3619 0
1 -918 -903 0
1 -918 3559 0
1 918 3529 0
1 -918 -3469 0
1 918 3544 0
1 933 -3559 0
1 -933 -3469 0
1 -948 3559 0
1 948 3469 0
1 948 949 0
1 -948 -3544 0
1 -3544 -903 0
1 3544 -3543 0
1 -3544 888 0
1 3559 933 0
1 -3559 -3544 0
1 -3559 -918 0
1 -3559 888 0
1 -3574 933 0
1 -3574 -3589 0
1 -3574 903 0
1 -3574 -918 0
1 -3589 -3588 0
1 3589 -933 0
1 784 3844 0
1 -784 -3889 0
1 784 -3859 0
1 799 -3844 0
1 -799 3753 0
1 799 -3859 0
1 -799 -3828 0
1 814 -3844 0
1 -814 3889 0
1 814 3799 0
1 814 -3768 0
1 3844 -3843 0
1 -3844 874 0
1 3844 3859 0
1 3844 -889 0
1 3859 -814 0
1 3859 -784 0
1 -3859 889 0
1 3874 -814 0
1 3874 3889 0
1 -3874 829 0
1 -3874 799 0
1 -3889 3874 0
1 3889 -814 0
1 -844 3844 0
1 844 3814 0
1 -844 -3799 0
1 -844 -3738 0
1 -859 -3814 0
1 -859 3784 0
1 859 -3723 0
1 -859 -3768 0
1 859 858 0
1 874 3814 0
1 874 3694 0
1 -874 -3829 0
1 874 3739 0
1 889 -874 0
1 -889 3754 0
1 -889 3724 0
1 -889 3694 0
1 -889 3829 0
1 -889 888 0
1 889 -3769 0
1 3784 -874 0
1 -3784 -844 0
1 3784 -814 0
1 3799 934 0
1 -3799 -844 0
1 -3799 859 0
1 3814 -3829 0
1 3814 -859 0
1 -3814 -829 0
1 3829 3814 0
1 -3829 844 0
1 -3829 -859 0
1 -904 -903 0
1 -904 -3754 0
1 -904 3694 0
1 -904 -3664 0
1 904 -3769 0
1 904 -3679 0
1 -919 -3694 0
1 -919 -3769 0
1 919 -3679 0
1 -934 3799 0
1 949 3649 0
1 949 3754 0
1 949 -948 0
1 -949 -3799 0
1 -949 -3769 0
1 -3724 -904 0
1 -3724 -874 0
1 3724 919 0
1 -3739 -904 0
1 3739 -919 0
1 -3754 919 0
1 -3769 904 0
1 3769 874 0
1 3769 -949 0
1 3769 3768 0
1 -3769 889 0
